set VV := 0 1 2 3 4 5 6 7 8 9 10 11 12 13 14 15 16 17 18 19 ;
set VS := 0 1 2 3 4 5 6 7 8 9 10 11 12 13 14 15 16 17 18 19 20 21 22 23 24 25 26 27 28 29 30 31 32 33 34 35 36 37 38 39 40 41 42 43 44 ;
param cv := 
0 24
1 13
2 13
3 13
4 16
5 13
6 18
7 16
8 25
9 22
10 14
11 23
12 25
13 19
14 15
15 19
16 22
17 14
18 13
19 24
;
param cs := 
0 27
1 20
2 32
3 38
4 35
5 39
6 20
7 32
8 40
9 37
10 28
11 38
12 33
13 26
14 36
15 21
16 36
17 25
18 30
19 40
20 37
21 30
22 25
23 37
24 39
25 22
26 30
27 22
28 36
29 20
30 22
31 32
32 23
33 40
34 30
35 26
36 28
37 38
38 25
39 36
40 27
41 23
42 24
43 24
44 24
;
param bv:	 0 1 2 3 4 5 6 7 8 9 10 11 12 13 14 15 16 17 18 19 := 
		0 0 25 0 0 15 0 0 0 20 0 0 0 0 0 24 0 0 0 12 0 
		1 0 0 0 0 0 0 12 0 0 0 0 0 0 0 0 0 0 0 0 24 
		2 0 0 0 0 0 0 0 0 0 0 10 10 0 0 0 0 25 0 0 0 
		3 0 0 0 0 0 0 0 0 0 0 0 0 0 11 0 0 0 0 0 16 
		4 0 0 0 0 0 0 0 24 0 0 0 0 0 0 0 0 0 0 0 21 
		5 0 0 0 0 0 0 10 0 0 0 0 0 0 0 0 0 15 0 0 15 
		6 0 0 0 0 0 0 0 0 0 0 0 0 15 0 0 0 0 0 0 0 
		7 0 0 0 0 0 0 0 0 0 0 0 0 0 0 0 0 0 24 21 0 
		8 0 0 0 0 0 0 0 0 0 0 0 0 0 0 0 0 0 0 24 0 
		9 0 0 0 0 0 0 0 0 0 0 0 0 0 0 0 21 0 0 0 0 
		10 0 0 0 0 0 0 0 0 0 0 0 0 0 0 0 18 0 0 20 0 
		11 0 0 0 0 0 0 0 0 0 0 0 0 0 0 0 0 0 0 0 0 
		12 0 0 0 0 0 0 0 0 0 0 0 0 0 12 0 0 0 0 0 0 
		13 0 0 0 0 0 0 0 0 0 0 0 0 0 0 13 11 0 0 0 0 
		14 0 0 0 0 0 0 0 0 0 0 0 0 0 0 0 0 0 20 0 0 
		15 0 0 0 0 0 0 0 0 0 0 0 0 0 0 0 0 19 0 0 0 
		16 0 0 0 0 0 0 0 0 0 0 0 0 0 0 0 0 0 0 0 0 
		17 0 0 0 0 0 0 0 0 0 0 0 0 0 0 0 0 0 0 0 0 
		18 0 0 0 0 0 0 0 0 0 0 0 0 0 0 0 0 0 0 0 0 
		19 0 0 0 0 0 0 0 0 0 0 0 0 0 0 0 0 0 0 0 0 
;
param bs:	 0 1 2 3 4 5 6 7 8 9 10 11 12 13 14 15 16 17 18 19 20 21 22 23 24 25 26 27 28 29 30 31 32 33 34 35 36 37 38 39 40 41 42 43 44 := 
		0 0 0 0 0 0 0 0 0 32 0 38 0 0 0 0 40 0 0 0 0 0 0 0 0 0 0 0 0 0 0 0 0 35 0 0 0 0 0 0 24 0 0 0 0 32 
		1 0 0 0 0 0 0 0 0 0 0 0 0 0 0 0 0 0 0 0 0 0 0 39 0 0 0 0 0 0 0 0 0 0 0 0 33 0 0 0 0 0 0 0 0 0 
		2 0 0 0 0 0 0 0 0 0 0 0 0 0 0 0 0 0 0 0 0 0 0 0 21 0 0 34 0 25 0 0 26 0 0 0 0 0 0 0 0 0 0 0 0 0 
		3 0 0 0 0 0 0 0 0 0 0 0 0 0 0 20 0 0 0 0 0 0 0 0 0 0 0 0 20 0 0 0 0 0 0 0 0 0 0 0 0 0 0 0 0 0 
		4 0 0 0 0 0 31 0 0 0 0 0 0 40 0 0 0 0 0 0 0 0 0 0 0 40 0 32 38 0 0 0 0 0 0 0 0 0 0 25 0 35 0 0 0 0 
		5 0 0 0 0 31 0 0 0 0 0 0 0 0 0 0 0 0 0 0 0 0 0 22 23 0 0 0 0 0 0 0 0 0 0 0 0 0 29 0 0 0 0 0 0 0 
		6 0 0 0 0 0 0 0 0 0 0 0 30 35 0 0 0 0 0 29 0 0 0 36 0 0 0 0 39 30 0 0 0 0 0 34 0 0 34 22 0 0 0 0 0 0 
		7 0 0 0 0 0 0 0 0 0 22 0 0 0 0 0 33 0 0 0 0 0 0 0 0 0 0 0 0 0 0 0 0 0 0 0 0 0 0 0 0 0 28 32 0 0 
		8 32 0 0 0 0 0 0 0 0 0 0 0 0 0 0 0 0 0 0 0 0 0 0 0 0 0 0 0 0 0 0 0 22 0 0 0 0 0 0 0 0 0 0 0 0 
		9 0 0 0 0 0 0 0 22 0 0 0 0 0 0 0 0 33 0 0 0 0 0 0 30 0 31 0 0 0 34 0 0 0 0 0 0 29 0 0 0 0 40 0 0 0 
		10 38 0 0 0 0 0 0 0 0 0 0 0 0 0 0 0 0 0 0 0 0 0 0 0 0 0 0 0 0 0 0 0 0 0 0 0 0 0 0 0 22 0 0 0 0 
		11 0 0 0 0 0 0 30 0 0 0 0 0 0 0 0 0 0 0 23 0 0 0 0 0 0 0 0 0 0 0 0 0 0 21 21 0 0 0 25 0 0 0 0 0 0 
		12 0 0 0 0 40 0 35 0 0 0 0 0 0 34 0 0 0 0 28 0 0 0 0 0 0 0 0 0 0 0 0 0 39 0 39 0 0 0 0 0 36 0 0 0 0 
		13 0 0 0 0 0 0 0 0 0 0 0 0 34 0 0 0 0 0 29 0 21 0 0 0 0 0 0 0 0 0 26 0 0 0 0 0 0 20 0 0 0 22 0 0 0 
		14 0 0 0 20 0 0 0 0 0 0 0 0 0 0 0 0 25 0 0 0 0 21 0 0 0 0 0 0 37 0 0 33 0 0 0 0 0 0 0 0 0 0 0 0 0 
		15 40 0 0 0 0 0 0 33 0 0 0 0 0 0 0 0 0 0 0 22 0 0 0 0 0 0 0 0 0 0 0 38 0 0 0 0 0 0 0 0 0 0 0 0 0 
		16 0 0 0 0 0 0 0 0 0 33 0 0 0 0 25 0 0 0 0 0 0 35 0 0 0 0 0 0 0 0 0 0 37 0 0 0 0 0 0 0 0 0 0 38 0 
		17 0 0 0 0 0 0 0 0 0 0 0 0 0 0 0 0 0 0 0 38 0 0 0 0 0 0 0 0 0 0 0 40 0 0 0 0 0 26 0 0 0 0 0 0 0 
		18 0 0 0 0 0 0 29 0 0 0 0 23 28 29 0 0 0 0 0 0 0 0 0 0 0 0 0 0 0 23 29 0 0 0 0 24 0 0 0 0 0 0 0 0 0 
		19 0 0 0 0 0 0 0 0 0 0 0 0 0 0 0 22 0 38 0 0 0 0 0 0 24 0 0 0 0 0 0 0 0 0 0 0 0 0 0 0 0 0 24 0 0 
		20 0 0 0 0 0 0 0 0 0 0 0 0 0 21 0 0 0 0 0 0 0 40 0 0 0 0 0 0 0 0 25 0 0 0 0 0 0 0 0 0 0 0 0 0 0 
		21 0 0 0 0 0 0 0 0 0 0 0 0 0 0 21 0 35 0 0 0 40 0 0 0 25 0 0 0 0 0 0 0 0 0 0 0 0 0 0 0 0 0 0 0 0 
		22 0 39 0 0 0 22 36 0 0 0 0 0 0 0 0 0 0 0 0 0 0 0 0 0 0 0 0 0 34 0 0 0 0 0 0 0 0 0 0 0 0 0 0 22 0 
		23 0 0 21 0 0 23 0 0 0 30 0 0 0 0 0 0 0 0 0 0 0 0 0 0 0 0 0 0 40 0 0 38 34 0 0 0 0 0 24 0 34 0 0 0 34 
		24 0 0 0 0 40 0 0 0 0 0 0 0 0 0 0 0 0 0 0 24 0 25 0 0 0 0 0 0 0 0 22 0 0 0 0 0 0 0 0 0 0 0 0 0 0 
		25 0 0 0 0 0 0 0 0 0 31 0 0 0 0 0 0 0 0 0 0 0 0 0 0 0 0 0 0 0 0 0 0 0 0 0 0 30 0 0 0 0 0 0 36 0 
		26 0 0 34 0 32 0 0 0 0 0 0 0 0 0 0 0 0 0 0 0 0 0 0 0 0 0 0 0 35 0 0 0 0 39 0 0 0 0 0 0 20 0 0 0 0 
		27 0 0 0 20 38 0 39 0 0 0 0 0 0 0 0 0 0 0 0 0 0 0 0 0 0 0 0 0 0 0 0 0 0 0 39 0 0 0 0 0 23 0 0 0 0 
		28 0 0 25 0 0 0 30 0 0 0 0 0 0 0 37 0 0 0 0 0 0 0 34 40 0 0 35 0 0 0 0 0 0 0 0 0 0 0 0 0 0 0 0 0 0 
		29 0 0 0 0 0 0 0 0 0 34 0 0 0 0 0 0 0 0 23 0 0 0 0 0 0 0 0 0 0 0 0 0 0 0 0 0 0 0 0 0 0 0 0 0 0 
		30 0 0 0 0 0 0 0 0 0 0 0 0 0 26 0 0 0 0 29 0 25 0 0 0 22 0 0 0 0 0 0 0 0 0 0 0 0 0 0 0 0 0 0 29 0 
		31 0 0 26 0 0 0 0 0 0 0 0 0 0 0 33 38 0 40 0 0 0 0 0 38 0 0 0 0 0 0 0 0 0 0 0 29 21 0 0 0 0 0 0 0 0 
		32 35 0 0 0 0 0 0 0 22 0 0 0 39 0 0 0 37 0 0 0 0 0 0 34 0 0 0 0 0 0 0 0 0 0 0 26 27 0 25 0 22 0 0 0 0 
		33 0 0 0 0 0 0 0 0 0 0 0 21 0 0 0 0 0 0 0 0 0 0 0 0 0 0 39 0 0 0 0 0 0 0 0 0 0 0 0 0 0 0 0 0 0 
		34 0 0 0 0 0 0 34 0 0 0 0 21 39 0 0 0 0 0 0 0 0 0 0 0 0 0 0 39 0 0 0 0 0 0 0 0 0 0 0 0 0 0 0 0 0 
		35 0 33 0 0 0 0 0 0 0 0 0 0 0 0 0 0 0 0 24 0 0 0 0 0 0 0 0 0 0 0 0 29 26 0 0 0 0 0 0 0 0 36 0 0 0 
		36 0 0 0 0 0 0 0 0 0 29 0 0 0 0 0 0 0 0 0 0 0 0 0 0 0 30 0 0 0 0 0 21 27 0 0 0 0 0 0 0 0 0 0 0 0 
		37 0 0 0 0 0 29 34 0 0 0 0 0 0 20 0 0 0 26 0 0 0 0 0 0 0 0 0 0 0 0 0 0 0 0 0 0 0 0 0 0 0 0 0 0 0 
		38 0 0 0 0 25 0 22 0 0 0 0 25 0 0 0 0 0 0 0 0 0 0 0 24 0 0 0 0 0 0 0 0 25 0 0 0 0 0 0 29 0 0 0 0 0 
		39 24 0 0 0 0 0 0 0 0 0 0 0 0 0 0 0 0 0 0 0 0 0 0 0 0 0 0 0 0 0 0 0 0 0 0 0 0 0 29 0 20 0 0 0 0 
		40 0 0 0 0 35 0 0 0 0 0 22 0 36 0 0 0 0 0 0 0 0 0 0 34 0 0 20 23 0 0 0 0 22 0 0 0 0 0 0 20 0 0 0 0 30 
		41 0 0 0 0 0 0 0 28 0 40 0 0 0 22 0 0 0 0 0 0 0 0 0 0 0 0 0 0 0 0 0 0 0 0 0 36 0 0 0 0 0 0 0 0 0 
		42 0 0 0 0 0 0 0 32 0 0 0 0 0 0 0 0 0 0 0 24 0 0 0 0 0 0 0 0 0 0 0 0 0 0 0 0 0 0 0 0 0 0 0 0 0 
		43 0 0 0 0 0 0 0 0 0 0 0 0 0 0 0 0 38 0 0 0 0 0 22 0 0 36 0 0 0 0 29 0 0 0 0 0 0 0 0 0 0 0 0 0 0 
		44 32 0 0 0 0 0 0 0 0 0 0 0 0 0 0 0 0 0 0 0 0 0 0 34 0 0 0 0 0 0 0 0 0 0 0 0 0 0 0 0 30 0 0 0 0 
;
